22	3

8	10	10	

0	0	0	0	3	2	3	4	
2	3	5	2	2	5	8	
4	5	4	3	2	6	7	
5	5	2	2	2	5	7	
1	4	1	4	2	9	10	
4	5	5	4	2	9	10	
4	3	5	2	2	11	12	
8	2	4	4	2	10	11	
3	3	2	2	1	13	
1	3	2	4	1	14	
6	3	3	2	3	14	15	16	
5	4	1	4	1	13	
4	1	4	4	1	17	
1	2	2	2	1	19	
2	5	5	4	1	17	
2	1	5	4	2	17	18	
4	4	5	4	1	20	
1	3	2	3	1	21	
2	5	3	3	1	20	
2	2	4	6	1	22	
6	1	6	2	1	22	
0	0	0	0	0	
